
data;

param i := 10;
param j := 3;

param c4 := 5;

param c :=
1	6
2	3
3	7;

param l :=
1	15000
2	30000
3	100000;

param d := 
1	36400
2	37058.84
3	37729.61
4	38412.51
5	39107.78
6	39815.63
7	40536.29
8	41270.00
9	42016.99
10	42777.49;